c 198_3_checker_5cl.cnf
c
c field = 198
c formula set type = 3_checker_5cl
c
p cnf 5 12
390 
392 
396 
-399 
-400 
391 
393 
397 
-398 
-401 
392 
396 
398 
-391 
-400 
393 
397 
399 
-390 
-401 
304 
334 
364 
-425 
-274 
305 
335 
365 
-424 
-275 
334 
364 
424 
-305 
-274 
335 
365 
425 
-304 
-275 
310 
338 
366 
-423 
-282 
311 
339 
367 
-422 
-283 
338 
366 
422 
-311 
-282 
339 
367 
423 
-310 
-283 
